275777.0
2340
4 5 10 12 13 14 16 17 21 27 28 29 30 32 36 41 43 44 45 46 47 48 51 52 54 55 56 60 61 65 66 68 69 71 73 77 80 81 82 84 86 88 89 91 96 97 98 99 101 102 103 106 107 108 110 111 112 113 114 115 117 118 119 121 124 128 131 132 134 135 136 138 146 148 152 153 154 157 159 162 163 164 166 169 172 175 178 179 181 184 186 190 192 193 196 198 